43073.0
1 0 1 1 1 1 1 1 0 1 1 1 1 0 0 0 0 0 1 1 1 1 0 1 1 1 1 1 1 0 
18 19 21 27 2 12 21 27 18 28 4 28 10 3 28 18 3 20 27 0 18 21 5 24 10 18 27 19 4 2 19 19 4 21 27 6 20 9 24 21 18 9 6 4 20 19 3 21 19 20 24 24 24 21 20 6 11 9 18 7 4 0 7 20 3 11 5 19 28 25 18 12 19 9 23 23 20 23 20 24 10 0 9 25 4 10 6 5 27 7 28 6 25 25 2 3 11 6 0 28 28 21 25 18 4 0 4 24 27 3 19 4 27 12 12 20 28 7 0 20 26 11 28 19 26 21 2 11 26 0 28 24 25 20 23 9 3 3 28 10 12 27 11 11 25 5 24 21 27 25 24 0 23 0 20 11 2 21 3 3 3 27 10 24 5 27 5 4 3 21 5 20 19 10 26 2 0 10 4 10 5 21 2 19 12 9 28 23 0 21 2 21 6 4 7 12 7 21 10 19 